% File represents an instance of a Composite Structure problem to be solved by a CP framework
% Created on 2025-03-26 10:41:25.484
T = 58;
n = 16;
m = 24;
edges = [(1, 2),
(5, 6),
(10, 9),
(13, 14),
(3, 2),
(7, 6),
(11, 10),
(15, 14),
(4, 3),
(8, 7),
(12, 11),
(16, 15),
(5, 1),
(5, 9),
(13, 9),
(6, 2),
(10, 6),
(10, 14),
(7, 3),
(11, 7),
(11, 15),
(8, 4),
(12, 8),
(12, 16)];
counts = [|18, 4, 18, 2,
|16, 2, 16, 2,
|18, 4, 18, 2,
|18, 10, 18, 2,
|20, 4, 20, 2,
|18, 4, 18, 2,
|18, 8, 18, 4,
|18, 14, 18, 4,
|20, 2, 20, 2,
|20, 6, 20, 2,
|20, 10, 20, 4,
|20, 14, 20, 4,
|20, 2, 20, 4,
|20, 2, 20, 2,
|20, 8, 20, 2,
|20, 10, 20, 4|];
